experiment/data/lkh-res/Vrp-Set-X-n162/Vrp-Set-X-n162-lkh/0.lkh1.vrp
NAME : 0
COMMENT : CVRP Instance
TYPE : CVRP
DIMENSION : 162
EDGE_WEIGHT_TYPE : EUC_2D
CAPACITY : 1174
NODE_COORD_SECTION
1	50000	50000
2	30000	7100
3	43400	400
4	25700	79800
5	71800	1700
6	87900	20600
7	92900	33000
8	35300	79300
9	38900	54000
10	20200	5500
11	41700	25300
12	92100	57200
13	9400	78800
14	87000	32700
15	28100	12400
16	41100	28800
17	88200	11600
18	30700	24000
19	35900	93500
20	35200	85800
21	50200	77600
22	26900	3300
23	44000	81400
24	85000	46100
25	90900	40400
26	33900	45800
27	76700	53500
28	8600	4700
29	75800	53200
30	42600	28200
31	53400	1000
32	82600	83000
33	91100	7900
34	27000	79100
35	39100	79400
36	90800	78700
37	92900	85800
38	93800	28100
39	94100	57900
40	75200	16200
41	57900	6800
42	32300	57000
43	23800	70000
44	85300	97000
45	32900	80500
46	65100	48600
47	29100	63100
48	28600	48100
49	85500	54700
50	97200	37800
51	56100	49000
52	20500	74100
53	52800	67200
54	66400	60500
55	46200	53200
56	34000	5400
57	92900	94100
58	93600	4600
59	86400	65400
60	50100	49500
61	33900	1000
62	32400	59500
63	58500	89300
64	7300	40100
65	24400	92600
66	19000	65900
67	90000	92900
68	52500	87800
69	83200	62200
70	22800	66200
71	3600	57800
72	89700	29200
73	49200	42600
74	95800	54600
75	67400	30300
76	31200	78100
77	32000	55700
78	22600	26400
79	44600	70200
80	47000	74600
81	61300	62000
82	71000	28900
83	43900	1500
84	14800	35200
85	37100	11500
86	41400	10800
87	69300	62600
88	70300	3100
89	79800	93200
90	29400	17200
91	71000	58800
92	70100	37000
93	62000	27000
94	63200	14700
95	90900	88900
96	74500	98500
97	77100	94600
98	24800	17800
99	26500	40800
100	80800	69900
101	86700	88300
102	72500	5800
103	68800	87500
104	54600	14900
105	10800	30300
106	40100	22500
107	82400	87800
108	33600	11500
109	68300	21900
110	42800	1900
111	40700	6800
112	69100	74500
113	62400	4600
114	600	53900
115	65200	92300
116	51300	26200
117	63900	75300
118	11200	11400
119	47800	4600
120	44000	21900
121	78000	27000
122	42600	12100
123	35400	10500
124	88500	96300
125	40300	3200
126	61700	23000
127	37000	16900
128	40300	38600
129	39200	5200
130	76900	96700
131	81100	68300
132	96800	2600
133	64400	8200
134	33900	12200
135	41300	2200
136	45900	19800
137	64300	39100
138	73300	20000
139	34800	15800
140	36100	22900
141	72600	74900
142	48000	25000
143	83700	98300
144	38400	13400
145	42700	19700
146	73100	57900
147	74100	13500
148	44200	10500
149	42100	2300
150	31500	17800
151	67600	53000
152	72900	10700
153	66800	47100
154	39100	7900
155	71500	72800
156	59200	32500
157	54200	29600
158	60700	4300
159	72700	28300
160	44900	10200
161	39400	10100
162	22300	28300
DEMAND_SECTION
1	0
2	60
3	88
4	74
5	56
6	95
7	95
8	83
9	94
10	93
11	79
12	61
13	83
14	68
15	86
16	96
17	75
18	67
19	74
20	92
21	71
22	92
23	74
24	82
25	88
26	95
27	69
28	100
29	91
30	83
31	78
32	63
33	88
34	84
35	59
36	77
37	89
38	74
39	74
40	85
41	71
42	72
43	61
44	99
45	65
46	88
47	75
48	82
49	100
50	96
51	89
52	97
53	52
54	57
55	54
56	64
57	78
58	67
59	80
60	85
61	83
62	54
63	68
64	80
65	76
66	100
67	68
68	84
69	71
70	65
71	86
72	53
73	57
74	83
75	62
76	95
77	84
78	63
79	59
80	98
81	100
82	57
83	66
84	79
85	66
86	87
87	53
88	99
89	72
90	87
91	58
92	78
93	68
94	60
95	66
96	86
97	61
98	91
99	64
100	90
101	69
102	73
103	55
104	59
105	94
106	58
107	82
108	96
109	51
110	52
111	65
112	61
113	65
114	85
115	56
116	83
117	76
118	89
119	100
120	56
121	60
122	89
123	57
124	72
125	59
126	59
127	99
128	51
129	80
130	89
131	100
132	91
133	96
134	57
135	59
136	74
137	69
138	81
139	73
140	96
141	83
142	63
143	68
144	96
145	86
146	62
147	62
148	54
149	98
150	70
151	69
152	57
153	81
154	53
155	78
156	64
157	72
158	59
159	92
160	96
161	73
162	78
DEPOT_SECTION
1
-1
EOF
