experiment/data/lkh-res/Vrp-Set-X-n162/Vrp-Set-X-n162-lkh/0.lkh1.log
PARAMETER_FILE = baseline_results/cvrp_lkh/Vrp-Set-X-n162/Vrp-Set-X-n162-lkh/0.lkh1.par
Reading PROBLEM_FILE: "baseline_results/cvrp_lkh/Vrp-Set-X-n162/Vrp-Set-X-n162-lkh/0.lkh1.vrp" ... done
ASCENT_CANDIDATES = 50
BACKBONE_TRIALS = 0
BACKTRACKING = NO
# BWTSP =
# CANDIDATE_FILE =
CANDIDATE_SET_TYPE = ALPHA
# DISTANCE =
DEPOT = 1
# EDGE_FILE =
EXCESS = 0.00617284
EXTERNAL_SALESMEN = 0
EXTRA_CANDIDATES = 0 
EXTRA_CANDIDATE_SET_TYPE = QUADRANT
GAIN23 = NO
GAIN_CRITERION = YES
INITIAL_PERIOD = 100
INITIAL_STEP_SIZE = 1
INITIAL_TOUR_ALGORITHM = WALK
# INITIAL_TOUR_FILE = 
INITIAL_TOUR_FRACTION = 1.000
# INPUT_TOUR_FILE = 
KICK_TYPE = 4
KICKS = 1
# MAX_BREADTH =
MAKESPAN = NO
MAX_CANDIDATES = 5 
MAX_SWAPS = 0
MAX_TRIALS = 10000
# MERGE_TOUR_FILE =
MOVE_TYPE = 5 SPECIAL
MTSP_MIN_SIZE = 1
MTSP_MAX_SIZE = 161
# MTSP_SOLUTION_FILE = 
# NONSEQUENTIAL_MOVE_TYPE = 5
# OPTIMUM =
OUTPUT_TOUR_FILE = baseline_results/cvrp_lkh/Vrp-Set-X-n162/Vrp-Set-X-n162-lkh/0.lkh1.tour
PATCHING_A = 1 
PATCHING_C = 0 
# PI_FILE = 
POPMUSIC_INITIAL_TOUR = NO
POPMUSIC_MAX_NEIGHBORS = 5
POPMUSIC_SAMPLE_SIZE = 10
POPMUSIC_SOLUTIONS = 50
POPMUSIC_TRIALS = 1
POPULATION_SIZE = 10
PRECISION = 100
PROBLEM_FILE = baseline_results/cvrp_lkh/Vrp-Set-X-n162/Vrp-Set-X-n162-lkh/0.lkh1.vrp
RECOMBINATION = IPT
RESTRICTED_SEARCH = YES
RUNS = 1
SALESMEN = 11
SCALE = 1
SEED = 1234
# SINTEF_SOLUTION_FILE = 
STOP_AT_OPTIMUM = YES
SUBGRADIENT = YES
# SUBPROBLEM_SIZE =
# SUBPROBLEM_TOUR_FILE = 
SUBSEQUENT_MOVE_TYPE = 5 SPECIAL
SUBSEQUENT_PATCHING = YES
# TIME_LIMIT =
# TOTAL_TIME_LIMIT =
# TOUR_FILE = 
TRACE_LEVEL = 1
VEHICLES = 11

Lower bound = 1087185.2, Ascent time = 0.03 sec.
Cand.min = 3, Cand.avg = 5.0, Cand.max = 5
Preprocessing time = 0.03 sec.
* 1: Cost = 0_1522964, Time = 0.02 sec. 
Writing OUTPUT_TOUR_FILE: "baseline_results/cvrp_lkh/Vrp-Set-X-n162/Vrp-Set-X-n162-lkh/0.lkh1.tour" ... done
* 4: Cost = 0_1497669, Time = 0.02 sec. 
Writing OUTPUT_TOUR_FILE: "baseline_results/cvrp_lkh/Vrp-Set-X-n162/Vrp-Set-X-n162-lkh/0.lkh1.tour" ... done
* 22: Cost = 0_1494851, Time = 0.04 sec. 
Writing OUTPUT_TOUR_FILE: "baseline_results/cvrp_lkh/Vrp-Set-X-n162/Vrp-Set-X-n162-lkh/0.lkh1.tour" ... done
* 24: Cost = 0_1478056, Time = 0.05 sec. 
Writing OUTPUT_TOUR_FILE: "baseline_results/cvrp_lkh/Vrp-Set-X-n162/Vrp-Set-X-n162-lkh/0.lkh1.tour" ... done
* 27: Cost = 0_1470555, Time = 0.07 sec. 
Writing OUTPUT_TOUR_FILE: "baseline_results/cvrp_lkh/Vrp-Set-X-n162/Vrp-Set-X-n162-lkh/0.lkh1.tour" ... done
* 34: Cost = 0_1461722, Time = 0.09 sec. 
Writing OUTPUT_TOUR_FILE: "baseline_results/cvrp_lkh/Vrp-Set-X-n162/Vrp-Set-X-n162-lkh/0.lkh1.tour" ... done
* 37: Cost = 0_1459252, Time = 0.09 sec. 
Writing OUTPUT_TOUR_FILE: "baseline_results/cvrp_lkh/Vrp-Set-X-n162/Vrp-Set-X-n162-lkh/0.lkh1.tour" ... done
* 51: Cost = 0_1457845, Time = 0.11 sec. 
Writing OUTPUT_TOUR_FILE: "baseline_results/cvrp_lkh/Vrp-Set-X-n162/Vrp-Set-X-n162-lkh/0.lkh1.tour" ... done
* 55: Cost = 0_1450129, Time = 0.12 sec. 
Writing OUTPUT_TOUR_FILE: "baseline_results/cvrp_lkh/Vrp-Set-X-n162/Vrp-Set-X-n162-lkh/0.lkh1.tour" ... done
* 56: Cost = 0_1445716, Time = 0.12 sec. 
Writing OUTPUT_TOUR_FILE: "baseline_results/cvrp_lkh/Vrp-Set-X-n162/Vrp-Set-X-n162-lkh/0.lkh1.tour" ... done
* 58: Cost = 0_1445434, Time = 0.12 sec. 
Writing OUTPUT_TOUR_FILE: "baseline_results/cvrp_lkh/Vrp-Set-X-n162/Vrp-Set-X-n162-lkh/0.lkh1.tour" ... done
* 60: Cost = 0_1444878, Time = 0.13 sec. 
Writing OUTPUT_TOUR_FILE: "baseline_results/cvrp_lkh/Vrp-Set-X-n162/Vrp-Set-X-n162-lkh/0.lkh1.tour" ... done
* 69: Cost = 0_1442406, Time = 0.15 sec. 
Writing OUTPUT_TOUR_FILE: "baseline_results/cvrp_lkh/Vrp-Set-X-n162/Vrp-Set-X-n162-lkh/0.lkh1.tour" ... done
* 76: Cost = 0_1441805, Time = 0.17 sec. 
Writing OUTPUT_TOUR_FILE: "baseline_results/cvrp_lkh/Vrp-Set-X-n162/Vrp-Set-X-n162-lkh/0.lkh1.tour" ... done
* 77: Cost = 0_1435860, Time = 0.18 sec. 
Writing OUTPUT_TOUR_FILE: "baseline_results/cvrp_lkh/Vrp-Set-X-n162/Vrp-Set-X-n162-lkh/0.lkh1.tour" ... done
* 82: Cost = 0_1435397, Time = 0.19 sec. 
Writing OUTPUT_TOUR_FILE: "baseline_results/cvrp_lkh/Vrp-Set-X-n162/Vrp-Set-X-n162-lkh/0.lkh1.tour" ... done
* 112: Cost = 0_1435140, Time = 0.27 sec. 
Writing OUTPUT_TOUR_FILE: "baseline_results/cvrp_lkh/Vrp-Set-X-n162/Vrp-Set-X-n162-lkh/0.lkh1.tour" ... done
* 113: Cost = 0_1435042, Time = 0.28 sec. 
Writing OUTPUT_TOUR_FILE: "baseline_results/cvrp_lkh/Vrp-Set-X-n162/Vrp-Set-X-n162-lkh/0.lkh1.tour" ... done
* 137: Cost = 0_1434457, Time = 0.33 sec. 
Writing OUTPUT_TOUR_FILE: "baseline_results/cvrp_lkh/Vrp-Set-X-n162/Vrp-Set-X-n162-lkh/0.lkh1.tour" ... done
* 148: Cost = 0_1434002, Time = 0.36 sec. 
Writing OUTPUT_TOUR_FILE: "baseline_results/cvrp_lkh/Vrp-Set-X-n162/Vrp-Set-X-n162-lkh/0.lkh1.tour" ... done
* 186: Cost = 0_1432738, Time = 0.45 sec. 
Writing OUTPUT_TOUR_FILE: "baseline_results/cvrp_lkh/Vrp-Set-X-n162/Vrp-Set-X-n162-lkh/0.lkh1.tour" ... done
* 192: Cost = 0_1431889, Time = 0.46 sec. 
Writing OUTPUT_TOUR_FILE: "baseline_results/cvrp_lkh/Vrp-Set-X-n162/Vrp-Set-X-n162-lkh/0.lkh1.tour" ... done
* 3402: Cost = 0_1430551, Time = 8.07 sec. 
Writing OUTPUT_TOUR_FILE: "baseline_results/cvrp_lkh/Vrp-Set-X-n162/Vrp-Set-X-n162-lkh/0.lkh1.tour" ... done
* 3436: Cost = 0_1430178, Time = 8.20 sec. 
Writing OUTPUT_TOUR_FILE: "baseline_results/cvrp_lkh/Vrp-Set-X-n162/Vrp-Set-X-n162-lkh/0.lkh1.tour" ... done
* 5575: Cost = 0_1429943, Time = 13.75 sec. 
Writing OUTPUT_TOUR_FILE: "baseline_results/cvrp_lkh/Vrp-Set-X-n162/Vrp-Set-X-n162-lkh/0.lkh1.tour" ... done
* 5621: Cost = 0_1429852, Time = 13.87 sec. 
Writing OUTPUT_TOUR_FILE: "baseline_results/cvrp_lkh/Vrp-Set-X-n162/Vrp-Set-X-n162-lkh/0.lkh1.tour" ... done
* 7539: Cost = 0_1429770, Time = 18.98 sec. 
Writing OUTPUT_TOUR_FILE: "baseline_results/cvrp_lkh/Vrp-Set-X-n162/Vrp-Set-X-n162-lkh/0.lkh1.tour" ... done
* 7761: Cost = 0_1426839, Time = 19.64 sec. 
Writing OUTPUT_TOUR_FILE: "baseline_results/cvrp_lkh/Vrp-Set-X-n162/Vrp-Set-X-n162-lkh/0.lkh1.tour" ... done
* 7929: Cost = 0_1426564, Time = 20.05 sec. 
Writing OUTPUT_TOUR_FILE: "baseline_results/cvrp_lkh/Vrp-Set-X-n162/Vrp-Set-X-n162-lkh/0.lkh1.tour" ... done
* 8318: Cost = 0_1426466, Time = 20.99 sec. 
Writing OUTPUT_TOUR_FILE: "baseline_results/cvrp_lkh/Vrp-Set-X-n162/Vrp-Set-X-n162-lkh/0.lkh1.tour" ... done
Population:
  1: 0_1426466
Run 1: Cost = 0_1426466, Time = 25.47 sec. 

Successes/Runs = 0/1 
Cost.min = 1426466, Cost.avg = 1426466.00, Cost.max = 1426466
Gap.min = 0.0000%, Gap.avg = 0.0000%, Gap.max = 0.0000%
Penalty.min = 0, Penalty.avg = 0.00, Penalty.max = 0
Trials.min = 10000, Trials.avg = 10000.0, Trials.max = 10000
Time.min = 25.47 sec., Time.avg = 25.47 sec., Time.max = 25.47 sec.
Time.total = 25.51 sec.
  Size.min = 12, Size.max = 17, Penalty = 0
  Cost.min = 74946, Cost.max = 155658, Cost.sum = 1426466
Best CVRP solution:
  Cost = 0_1426466

