experiment/data/lkh-res/Vrp-Set-X-n162/Vrp-Set-X-n162-lkh/0.lkh1.tour
NAME : 0.1426466.tour
COMMENT : Length = 1426466
COMMENT : Found by LKH-3 [Keld Helsgaun] Tue Apr  9 03:29:15 2024
TYPE : TOUR
DIMENSION : 172
TOUR_SECTION
1
55
9
77
42
62
47
70
66
43
52
13
71
114
64
48
172
60
157
116
142
136
120
145
106
11
30
16
73
165
137
75
109
138
40
147
152
102
5
88
113
158
133
94
126
93
156
168
46
153
14
72
7
38
132
58
33
17
6
121
159
82
92
163
51
151
29
27
49
24
25
50
74
39
12
59
69
146
91
164
54
87
131
100
36
37
95
67
57
124
44
143
97
103
117
166
140
127
144
86
161
85
123
108
134
139
150
98
78
162
128
167
104
41
31
119
83
3
110
149
135
125
129
154
111
160
148
122
170
26
99
84
105
118
28
10
22
61
56
2
15
90
18
169
81
112
155
141
32
101
107
89
130
96
115
63
68
21
53
171
80
23
20
19
65
4
34
76
45
8
35
79
-1
EOF
